c description: Tseitin formula on , with odd charge
c generator: CNFgen (0.9.0)
c copyright: (C) 2012-2020 Massimo Lauria <massimo.lauria@uniroma1.it>
c url: https://massimolauria.net/cnfgen
c
p cnf 20 129
1 2 3 0
1 -2 -3 0
-1 2 -3 0
-1 -2 3 0
1 4 5 6 -7 0
1 4 5 -6 7 0
1 4 -5 6 7 0
1 4 -5 -6 -7 0
1 -4 5 6 7 0
1 -4 5 -6 -7 0
1 -4 -5 6 -7 0
1 -4 -5 -6 7 0
-1 4 5 6 7 0
-1 4 5 -6 -7 0
-1 4 -5 6 -7 0
-1 4 -5 -6 7 0
-1 -4 5 6 -7 0
-1 -4 5 -6 7 0
-1 -4 -5 6 7 0
-1 -4 -5 -6 -7 0
4 8 9 10 11 -12 0
4 8 9 10 -11 12 0
4 8 9 -10 11 12 0
4 8 9 -10 -11 -12 0
4 8 -9 10 11 12 0
4 8 -9 10 -11 -12 0
4 8 -9 -10 11 -12 0
4 8 -9 -10 -11 12 0
4 -8 9 10 11 12 0
4 -8 9 10 -11 -12 0
4 -8 9 -10 11 -12 0
4 -8 9 -10 -11 12 0
4 -8 -9 10 11 -12 0
4 -8 -9 10 -11 12 0
4 -8 -9 -10 11 12 0
4 -8 -9 -10 -11 -12 0
-4 8 9 10 11 12 0
-4 8 9 10 -11 -12 0
-4 8 9 -10 11 -12 0
-4 8 9 -10 -11 12 0
-4 8 -9 10 11 -12 0
-4 8 -9 10 -11 12 0
-4 8 -9 -10 11 12 0
-4 8 -9 -10 -11 -12 0
-4 -8 9 10 11 -12 0
-4 -8 9 10 -11 12 0
-4 -8 9 -10 11 12 0
-4 -8 9 -10 -11 -12 0
-4 -8 -9 10 11 12 0
-4 -8 -9 10 -11 -12 0
-4 -8 -9 -10 11 -12 0
-4 -8 -9 -10 -11 12 0
2 5 13 14 15 -16 0
2 5 13 14 -15 16 0
2 5 13 -14 15 16 0
2 5 13 -14 -15 -16 0
2 5 -13 14 15 16 0
2 5 -13 14 -15 -16 0
2 5 -13 -14 15 -16 0
2 5 -13 -14 -15 16 0
2 -5 13 14 15 16 0
2 -5 13 14 -15 -16 0
2 -5 13 -14 15 -16 0
2 -5 13 -14 -15 16 0
2 -5 -13 14 15 -16 0
2 -5 -13 14 -15 16 0
2 -5 -13 -14 15 16 0
2 -5 -13 -14 -15 -16 0
-2 5 13 14 15 16 0
-2 5 13 14 -15 -16 0
-2 5 13 -14 15 -16 0
-2 5 13 -14 -15 16 0
-2 5 -13 14 15 -16 0
-2 5 -13 14 -15 16 0
-2 5 -13 -14 15 16 0
-2 5 -13 -14 -15 -16 0
-2 -5 13 14 15 -16 0
-2 -5 13 14 -15 16 0
-2 -5 13 -14 15 16 0
-2 -5 13 -14 -15 -16 0
-2 -5 -13 14 15 16 0
-2 -5 -13 14 -15 -16 0
-2 -5 -13 -14 15 -16 0
-2 -5 -13 -14 -15 16 0
-13 0
6 8 14 17 -18 0
6 8 14 -17 18 0
6 8 -14 17 18 0
6 8 -14 -17 -18 0
6 -8 14 17 18 0
6 -8 14 -17 -18 0
6 -8 -14 17 -18 0
6 -8 -14 -17 18 0
-6 8 14 17 18 0
-6 8 14 -17 -18 0
-6 8 -14 17 -18 0
-6 8 -14 -17 18 0
-6 -8 14 17 -18 0
-6 -8 14 -17 18 0
-6 -8 -14 17 18 0
-6 -8 -14 -17 -18 0
7 9 -17 0
7 -9 17 0
-7 9 17 0
-7 -9 -17 0
10 15 18 19 -20 0
10 15 18 -19 20 0
10 15 -18 19 20 0
10 15 -18 -19 -20 0
10 -15 18 19 20 0
10 -15 18 -19 -20 0
10 -15 -18 19 -20 0
10 -15 -18 -19 20 0
-10 15 18 19 20 0
-10 15 18 -19 -20 0
-10 15 -18 19 -20 0
-10 15 -18 -19 20 0
-10 -15 18 19 -20 0
-10 -15 18 -19 20 0
-10 -15 -18 19 20 0
-10 -15 -18 -19 -20 0
11 16 -19 0
11 -16 19 0
-11 16 19 0
-11 -16 -19 0
3 12 -20 0
3 -12 20 0
-3 12 20 0
-3 -12 -20 0